75.0 55.0 0
7.0 75.0 12
77.0 1.0 26
51.0 25.0 1
81.0 25.0 20
59.0 37.0 2
93.0 45.0 13
43.0 21.0 20
35.0 53.0 7
77.0 63.0 10
37.0 13.0 15
37.0 51.0 7
27.0 31.0 24
95.0 31.0 10
87.0 43.0 12
23.0 65.0 23
9.0 51.0 13
73.0 81.0 19
3.0 1.0 9
41.0 61.0 12
29.0 81.0 6
51.0 95.0 9
49.0 25.0 22
81.0 53.0 18
7.0 51.0 19
21.0 5.0 20
91.0 35.0 24
17.0 81.0 10
61.0 69.0 4
27.0 97.0 20
83.0 23.0 15
21.0 93.0 13
59.0 31.0 12
27.0 53.0 3
9.0 91.0 7
11.0 27.0 18
59.0 41.0 3
67.0 1.0 23
77.0 39.0 1
47.0 29.0 17
3.0 89.0 13
33.0 87.0 6
17.0 45.0 22
91.0 41.0 20
23.0 3.0 21
97.0 61.0 2
